(set-logic QF_S)
(declare-fun var0 () String)
(declare-fun var1 () String)
(declare-fun var2 () String)
(declare-fun var3 () Int)
(declare-fun var4 () Int)
(declare-fun var5 () Int)
(declare-fun var6 () Bool)
(declare-fun var7 () Bool)
(declare-fun var8 () Bool)
(assert (str.in.re (str.at var2 var5) (re.* re.allchar)))
(assert (str.suffixof (str.replace var1 var2 var0) (str.replace var1 var0 var0)))
(assert (str.contains (str.replace "1w}~}(GCv<" var2 var0) (str.replace var0 var2 var1)))
(assert (>= (str.len var0) (str.indexof (str.replace var0 var2 var1) (str.substr var1 var5 var4) (str.indexof var0 var2 var5))))
(check-sat)